letting initialStacks = [18, 23, 2, 50, 24, 37, 5, 26, 34, 9, 46, 42, 12, 30, 33, 38, 7, 1, 21, 19, 8, 32, 31, 15, 16, 28, 40, 45, 14, 20, 3, 51, 27, 13, 25, 4, 22, 36, 49, 17, 6, 39, 47, 11, 48, 10, 43, 35, 41, 44, 29]
